106948
28, 79, 35, 30, 2, 38, 16, 27, 7, 56, 17, 58, 77, 9, 21, 71, 66, 20, 67, 76, 36, 26, 70, 14, 62, 80, 46, 54, 45, 73, 64, 29, 10, 1, 13, 37, 18, 48, 24, 19, 31, 65, 4, 50, 63, 39, 52, 41, 78, 6, 61, 15, 69, 25, 42, 23, 55, 12, 3, 43, 57, 34, 49, 47, 60, 81, 72, 51, 33, 11, 75, 82, 40, 74, 32, 5, 22, 44, 68, 59, 53, 8, 83
